results/res_prop_muc/res_Cimatti_mathsat_cores/QF_RDL/fischer3-mutex-18.smt.smt2.res
unsat
( c10
  c1001
  c1002
  c1003
  c1004
  c1005
  c1010
  c1012
  c1014
  c1015
  c1017
  c1021
  c1022
  c1023
  c1026
  c1027
  c1030
  c1032
  c1033
  c1034
  c1035
  c1036
  c1041
  c1045
  c1047
  c1048
  c1049
  c105
  c1052
  c1053
  c1054
  c1057
  c1059
  c1060
  c1062
  c1065
  c1068
  c1069
  c1070
  c1071
  c1072
  c1073
  c1074
  c1082
  c1083
  c1084
  c1085
  c1086
  c109
  c1091
  c1092
  c1093
  c1095
  c1098
  c1101
  c1102
  c1103
  c1104
  c1108
  c1111
  c1113
  c1114
  c1116
  c1117
  c1120
  c1122
  c1125
  c1126
  c1127
  c1132
  c1133
  c1135
  c1138
  c1141
  c1142
  c1143
  c1144
  c1145
  c1146
  c1147
  c1155
  c1156
  c1157
  c1158
  c1159
  c116
  c1166
  c1168
  c1169
  c117
  c1171
  c1175
  c1176
  c1177
  c118
  c1181
  c1184
  c1186
  c1187
  c1189
  c1190
  c1193
  c1194
  c1195
  c1198
  c1199
  c1200
  c1205
  c1206
  c1208
  c1211
  c1214
  c1215
  c1216
  c1217
  c1218
  c1219
  c1220
  c1228
  c1229
  c1236
  c124
  c1240
  c1244
  c1247
  c1248
  c1252
  c1256
  c1257
  c1258
  c1259
  c126
  c1260
  c1263
  c1265
  c1266
  c1273
  c1275
  c1276
  c1284
  c1285
  c1286
  c1287
  c1288
  c1289
  c1290
  c1291
  c1292
  c1293
  c1294
  c1295
  c1299
  c13
  c1302
  c1303
  c1307
  c1311
  c1313
  c1314
  c1315
  c1316
  c1317
  c132
  c1323
  c1324
  c1326
  c1327
  c1329
  c133
  c1333
  c1334
  c1335
  c1339
  c134
  c1342
  c1344
  c1345
  c1347
  c1348
  c1353
  c1356
  c1357
  c1359
  c136
  c1360
  c1361
  c1363
  c1364
  c1365
  c1366
  c1369
  c137
  c1371
  c1372
  c1374
  c1376
  c1377
  c1380
  c1381
  c1382
  c1383
  c1384
  c1385
  c1386
  c1394
  c1395
  c1397
  c1398
  c1400
  c1404
  c1406
  c1407
  c1409
  c1410
  c1413
  c1414
  c1415
  c1416
  c1417
  c1420
  c1423
  c1424
  c1425
  c1426
  c1428
  c1429
  c1432
  c1433
  c1434
  c1436
  c1437
  c1438
  c1439
  c1444
  c1445
  c1447
  c1448
  c1449
  c1450
  c1453
  c1454
  c1455
  c1456
  c1457
  c1458
  c1459
  c146
  c1467
  c1468
  c1469
  c147
  c1470
  c1471
  c1477
  c1478
  c148
  c1480
  c1481
  c1483
  c1487
  c1488
  c1489
  c149
  c1493
  c1496
  c1498
  c1499
  c15
  c1501
  c1502
  c1505
  c1506
  c1507
  c1509
  c1510
  c1511
  c1512
  c1517
  c1518
  c1520
  c1522
  c1523
  c1526
  c1527
  c1528
  c1529
  c1530
  c1531
  c1532
  c1540
  c1541
  c1548
  c1552
  c1556
  c1559
  c156
  c1560
  c1564
  c1568
  c1569
  c1570
  c1571
  c1572
  c1575
  c1577
  c1578
  c1585
  c1587
  c1588
  c159
  c1596
  c1597
  c1598
  c1599
  c1600
  c1601
  c1602
  c1603
  c1604
  c1605
  c1606
  c1607
  c1611
  c1615
  c1619
  c162
  c1623
  c1625
  c1626
  c1627
  c1628
  c1629
  c1631
  c1636
  c1638
  c1639
  c1640
  c1641
  c1645
  c1646
  c1647
  c1650
  c1651
  c1654
  c1656
  c1657
  c1659
  c1660
  c1665
  c1669
  c1671
  c1672
  c1673
  c1675
  c1676
  c1677
  c1678
  c168
  c1683
  c1684
  c1685
  c1686
  c1688
  c1689
  c1692
  c1693
  c1694
  c1695
  c1696
  c1697
  c1698
  c1706
  c1707
  c1708
  c1709
  c1710
  c1717
  c1719
  c172
  c1720
  c1721
  c1722
  c1727
  c1728
  c1729
  c1730
  c1732
  c1735
  c1736
  c1737
  c1738
  c1740
  c1741
  c1744
  c1745
  c1746
  c1748
  c1749
  c175
  c1750
  c1751
  c1756
  c1757
  c1759
  c1760
  c1761
  c1762
  c1765
  c1766
  c1767
  c1768
  c1769
  c177
  c1770
  c1771
  c1779
  c1780
  c1781
  c1782
  c1783
  c1785
  c1790
  c1792
  c1793
  c1794
  c1795
  c1799
  c180
  c1800
  c1801
  c1804
  c1805
  c1808
  c1810
  c1811
  c1813
  c1814
  c1817
  c1818
  c1819
  c1821
  c1822
  c1823
  c1824
  c1829
  c1830
  c1832
  c1833
  c1834
  c1835
  c1838
  c1839
  c1840
  c1841
  c1842
  c1843
  c1844
  c185
  c1852
  c1853
  c1860
  c1864
  c1867
  c1868
  c1872
  c1876
  c1880
  c1881
  c1882
  c1883
  c1884
  c1887
  c1889
  c189
  c1890
  c1897
  c1899
  c1900
  c1908
  c1909
  c191
  c1910
  c1911
  c1912
  c1913
  c1914
  c1915
  c1916
  c1917
  c1918
  c1919
  c1923
  c1927
  c1931
  c1935
  c1937
  c1938
  c1940
  c1943
  c1948
  c1950
  c1951
  c1952
  c1953
  c1957
  c1958
  c1959
  c1962
  c1963
  c1966
  c1968
  c1969
  c197
  c1971
  c1972
  c1977
  c1981
  c1983
  c1984
  c1985
  c1987
  c1988
  c1989
  c199
  c1990
  c1995
  c1996
  c1998
  c1999
  c2000
  c2001
  c2004
  c2005
  c2006
  c2007
  c2008
  c2009
  c2010
  c2018
  c2019
  c2021
  c2024
  c2029
  c2031
  c2033
  c2034
  c2039
  c2040
  c2042
  c2043
  c2044
  c2047
  c2049
  c205
  c2050
  c2053
  c2056
  c2058
  c206
  c2060
  c2061
  c2062
  c2067
  c2068
  c2069
  c207
  c2071
  c2072
  c2073
  c2074
  c2077
  c2078
  c2079
  c2080
  c2081
  c2082
  c2083
  c209
  c2091
  c2092
  c2093
  c2094
  c2097
  c21
  c210
  c2102
  c2104
  c2105
  c2106
  c2107
  c2111
  c2112
  c2113
  c2116
  c2117
  c2120
  c2122
  c2123
  c2125
  c2126
  c2129
  c2130
  c2131
  c2133
  c2134
  c2135
  c2136
  c2141
  c2142
  c2144
  c2145
  c2146
  c2147
  c2150
  c2151
  c2152
  c2153
  c2154
  c2155
  c2156
  c2164
  c2165
  c2172
  c2176
  c2179
  c2180
  c2184
  c2188
  c219
  c2192
  c2193
  c2195
  c2196
  c2201
  c2202
  c2209
  c2211
  c2212
  c2220
  c2221
  c2222
  c2223
  c2224
  c2225
  c2226
  c2227
  c2228
  c2229
  c223
  c2230
  c2231
  c2235
  c2239
  c2243
  c2247
  c2249
  c2250
  c2252
  c2253
  c2260
  c2262
  c2263
  c2265
  c2269
  c2270
  c2271
  c2274
  c2275
  c2278
  c2280
  c2283
  c2284
  c2289
  c229
  c2293
  c2295
  c2296
  c2297
  c23
  c2300
  c2301
  c2302
  c2307
  c2308
  c2310
  c2312
  c2313
  c2316
  c2317
  c2318
  c2319
  c232
  c2320
  c2321
  c2322
  c2330
  c2331
  c2333
  c2336
  c2341
  c2343
  c2346
  c235
  c2351
  c2352
  c2354
  c2356
  c2359
  c2361
  c2362
  c2365
  c2368
  c2370
  c2373
  c2374
  c2380
  c2381
  c2383
  c2385
  c2386
  c2389
  c2390
  c2391
  c2392
  c2393
  c2394
  c2395
  c2403
  c2404
  c2405
  c2406
  c2407
  c241
  c2414
  c2416
  c2417
  c2419
  c2423
  c2424
  c2425
  c2429
  c2432
  c2434
  c2435
  c2437
  c2438
  c2441
  c2442
  c2443
  c2446
  c2447
  c2448
  c245
  c2453
  c2454
  c2456
  c2458
  c2459
  c2462
  c2463
  c2464
  c2465
  c2466
  c2467
  c2468
  c2476
  c2477
  c248
  c2484
  c2488
  c2491
  c2492
  c2496
  c2500
  c2504
  c2511
  c2513
  c2514
  c2521
  c2523
  c2524
  c253
  c2532
  c2533
  c2534
  c2535
  c2536
  c2537
  c2538
  c2539
  c2540
  c2541
  c2542
  c2543
  c2547
  c2551
  c2555
  c2559
  c2561
  c2562
  c2564
  c2565
  c2571
  c2572
  c2574
  c2576
  c2577
  c2581
  c2582
  c2583
  c2587
  c2590
  c2592
  c2593
  c2595
  c2596
  c2601
  c2605
  c2607
  c2609
  c2611
  c2612
  c2613
  c2614
  c2619
  c262
  c2620
  c2622
  c2623
  c2624
  c2625
  c2628
  c2629
  c263
  c2630
  c2631
  c2632
  c2633
  c2634
  c264
  c2642
  c2643
  c2644
  c2645
  c2651
  c2653
  c2655
  c2658
  c2663
  c2664
  c2668
  c2671
  c2673
  c2674
  c2675
  c2677
  c2680
  c2682
  c2685
  c2686
  c2692
  c2693
  c2695
  c2696
  c2697
  c2698
  c27
  c270
  c2701
  c2702
  c2703
  c2704
  c2705
  c2706
  c2707
  c2715
  c2716
  c2717
  c2718
  c2719
  c272
  c2725
  c2726
  c2728
  c2731
  c2735
  c2736
  c2737
  c2741
  c2744
  c2746
  c2747
  c2749
  c2750
  c2753
  c2755
  c2758
  c2759
  c2760
  c2765
  c2766
  c2768
  c2769
  c2770
  c2771
  c2774
  c2775
  c2776
  c2777
  c2778
  c2779
  c278
  c2780
  c2788
  c2789
  c279
  c2796
  c280
  c2800
  c2804
  c2808
  c2812
  c2816
  c2818
  c282
  c2823
  c2825
  c2826
  c283
  c2833
  c2835
  c2836
  c2844
  c2845
  c2846
  c2847
  c2848
  c2849
  c2850
  c2851
  c2852
  c2853
  c2854
  c2855
  c2859
  c2863
  c2867
  c2871
  c2873
  c2874
  c2876
  c2877
  c2879
  c2883
  c2884
  c2886
  c2889
  c2894
  c2895
  c2899
  c29
  c2902
  c2904
  c2905
  c2907
  c2908
  c2913
  c2917
  c2919
  c292
  c2921
  c2924
  c2925
  c2926
  c2931
  c2932
  c2934
  c2935
  c2936
  c2937
  c2940
  c2941
  c2942
  c2943
  c2944
  c2945
  c2946
  c2954
  c2955
  c2957
  c2960
  c2963
  c2965
  c2967
  c2970
  c2975
  c2976
  c2979
  c2980
  c2983
  c2985
  c2986
  c2988
  c2989
  c2992
  c2994
  c2997
  c2998
  c300
  c3002
  c3005
  c3007
  c3008
  c3009
  c3013
  c3014
  c3015
  c3016
  c3017
  c3018
  c3019
  c3027
  c3028
  c3029
  c3030
  c3031
  c3033
  c3037
  c3038
  c304
  c3040
  c3043
  c3048
  c3049
  c3053
  c3056
  c3058
  c3059
  c3061
  c3062
  c3065
  c3067
  c3070
  c3071
  c3072
  c3077
  c3078
  c308
  c3080
  c3081
  c3082
  c3083
  c3086
  c3087
  c3088
  c3089
  c3090
  c3091
  c3092
  c31
  c3100
  c3101
  c3108
  c3111
  c3112
  c3116
  c3119
  c312
  c3120
  c3124
  c3127
  c3128
  c3129
  c3135
  c3137
  c3138
  c3145
  c3147
  c3148
  c3156
  c3157
  c3158
  c3159
  c316
  c3160
  c3161
  c3162
  c3163
  c3164
  c3165
  c3166
  c3167
  c3171
  c3174
  c3175
  c3179
  c3182
  c3183
  c3185
  c3186
  c3188
  c3189
  c3194
  c3196
  c3198
  c320
  c3200
  c3201
  c3204
  c3206
  c3207
  c3211
  c3214
  c3216
  c3217
  c3219
  c3220
  c3225
  c3228
  c3229
  c3231
  c3233
  c3235
  c3236
  c3237
  c3241
  c3243
  c3244
  c3252
  c3253
  c3254
  c3255
  c3256
  c3257
  c3258
  c3266
  c3267
  c3268
  c3269
  c3275
  c3277
  c3279
  c3282
  c3285
  c3287
  c3288
  c3292
  c3295
  c3298
  c3300
  c3301
  c3304
  c3306
  c3309
  c3310
  c3314
  c3317
  c3325
  c3326
  c3327
  c3328
  c3329
  c3330
  c3331
  c3339
  c3340
  c3341
  c3342
  c3343
  c3348
  c3350
  c3352
  c3353
  c3355
  c3358
  c3360
  c3361
  c3365
  c3368
  c3370
  c3371
  c3373
  c3374
  c3377
  c3379
  c3382
  c3383
  c3384
  c3387
  c3389
  c3390
  c3398
  c3399
  c3400
  c3401
  c3402
  c3403
  c3404
  c3412
  c3413
  c3420
  c3423
  c3424
  c3428
  c3431
  c3432
  c3436
  c3439
  c3440
  c3447
  c3449
  c3450
  c3457
  c3459
  c3460
  c3468
  c3469
  c3470
  c3471
  c3472
  c3473
  c3474
  c3475
  c3476
  c3477
  c3478
  c3479
  c3483
  c3486
  c3487
  c3491
  c3494
  c3495
  c3497
  c3498
  c3499
  c350
  c3506
  c3508
  c351
  c3510
  c3513
  c3516
  c3518
  c3519
  c352
  c3523
  c3526
  c3528
  c3529
  c353
  c3531
  c3532
  c3537
  c354
  c3540
  c3541
  c3543
  c3545
  c3548
  c3549
  c355
  c3553
  c3555
  c3556
  c3564
  c3565
  c3566
  c3567
  c3568
  c3569
  c3570
  c3578
  c3579
  c3580
  c3587
  c3589
  c359
  c3591
  c3593
  c3594
  c3597
  c3599
  c3600
  c3603
  c3604
  c3607
  c3609
  c3610
  c3612
  c3613
  c3616
  c3618
  c3620
  c3621
  c3622
  c3626
  c3628
  c3629
  c363
  c3637
  c3638
  c3639
  c3640
  c3641
  c3642
  c3643
  c3651
  c3652
  c3653
  c3661
  c3662
  c3663
  c367
  c3671
  c3672
  c3676
  c3677
  c3680
  c3682
  c3683
  c3685
  c3686
  c3689
  c3691
  c3694
  c3695
  c3696
  c3699
  c37
  c3701
  c3702
  c371
  c3710
  c3711
  c3712
  c3713
  c3714
  c3715
  c3716
  c3724
  c3725
  c3732
  c3735
  c3736
  c3740
  c3743
  c3744
  c3748
  c375
  c3751
  c3752
  c3759
  c3761
  c3762
  c3769
  c377
  c3771
  c3772
  c3780
  c3781
  c3782
  c3783
  c3784
  c3785
  c3786
  c3787
  c3788
  c3789
  c3790
  c3791
  c3795
  c3798
  c3799
  c38
  c3803
  c3806
  c3807
  c3809
  c381
  c3810
  c3819
  c3820
  c3821
  c3825
  c3829
  c3830
  c3834
  c3835
  c3838
  c3841
  c3843
  c3844
  c3849
  c3852
  c3853
  c3855
  c3857
  c3858
  c3859
  c3860
  c3861
  c3865
  c3867
  c3868
  c3869
  c387
  c3870
  c3872
  c3876
  c3877
  c3878
  c3879
  c3880
  c3881
  c3882
  c3890
  c3891
  c39
  c390
  c3900
  c3901
  c3903
  c3906
  c3909
  c3911
  c3912
  c3915
  c3916
  c3919
  c3921
  c3922
  c3924
  c3925
  c3928
  c393
  c3930
  c3931
  c3933
  c3934
  c3938
  c3940
  c3941
  c3942
  c3943
  c3945
  c3949
  c3950
  c3951
  c3952
  c3953
  c3954
  c3955
  c3963
  c3964
  c397
  c3973
  c3975
  c398
  c3983
  c3984
  c3988
  c3989
  c399
  c3994
  c3995
  c3997
  c3998
  c40
  c4001
  c4003
  c4004
  c4006
  c4007
  c4008
  c4011
  c4013
  c4014
  c4015
  c4016
  c4018
  c4022
  c4023
  c4024
  c4025
  c4026
  c4027
  c4028
  c403
  c4036
  c4037
  c4044
  c4047
  c4048
  c4052
  c4055
  c4056
  c406
  c4060
  c4063
  c4064
  c4065
  c4066
  c4067
  c4068
  c4073
  c4074
  c4081
  c4083
  c4084
  c409
  c4092
  c4093
  c4094
  c4095
  c4096
  c4097
  c4098
  c4099
  c41
  c4100
  c4101
  c4102
  c4103
  c4107
  c411
  c4110
  c4111
  c4115
  c4118
  c4119
  c4121
  c4122
  c4131
  c4133
  c4141
  c4142
  c4150
  c4153
  c4155
  c4156
  c4161
  c4164
  c4165
  c4169
  c417
  c4170
  c4171
  c4172
  c4173
  c4177
  c4179
  c4180
  c4181
  c4182
  c4184
  c4188
  c4189
  c4190
  c4191
  c4192
  c4193
  c4194
  c42
  c4202
  c4203
  c421
  c4212
  c4213
  c4222
  c4223
  c4231
  c4234
  c4236
  c4237
  c4243
  c4245
  c4246
  c4250
  c4252
  c4253
  c4254
  c4255
  c4257
  c4261
  c4262
  c4263
  c4264
  c4265
  c4266
  c4267
  c4275
  c4276
  c428
  c4285
  c4286
  c429
  c4295
  c4296
  c43
  c430
  c4307
  c4309
  c4310
  c4316
  c4318
  c4319
  c4320
  c4323
  c4325
  c4326
  c4327
  c4328
  c4330
  c4334
  c4335
  c4336
  c4337
  c4338
  c4339
  c4340
  c4348
  c4349
  c4356
  c4359
  c436
  c4360
  c4364
  c4367
  c4368
  c4372
  c4375
  c4376
  c4377
  c438
  c4383
  c4385
  c4386
  c4393
  c4395
  c4396
  c44
  c4404
  c4405
  c4406
  c4407
  c4408
  c4409
  c4410
  c4411
  c4412
  c4413
  c4414
  c4415
  c4419
  c4422
  c4423
  c4427
  c4430
  c4431
  c4434
  c444
  c4443
  c445
  c4453
  c446
  c4462
  c4464
  c4465
  c4467
  c4468
  c4473
  c4476
  c4477
  c448
  c4482
  c4489
  c449
  c4491
  c4493
  c4494
  c4496
  c4497
  c45
  c4500
  c4501
  c4502
  c4503
  c4504
  c4505
  c4506
  c4515
  c4524
  c4534
  c4543
  c4545
  c4546
  c4548
  c4549
  c4555
  c4562
  c4566
  c4567
  c4569
  c4570
  c4573
  c4574
  c4575
  c4576
  c4577
  c4578
  c4579
  c458
  c4588
  c459
  c4597
  c46
  c4607
  c461
  c4616
  c4618
  c4619
  c4621
  c4622
  c4628
  c4635
  c4637
  c4639
  c4640
  c4642
  c4643
  c4646
  c4647
  c4648
  c4649
  c4650
  c4651
  c4652
  c4660
  c4661
  c4668
  c4671
  c4672
  c4676
  c4679
  c468
  c4680
  c4684
  c4687
  c4688
  c4695
  c4697
  c4698
  c47
  c4705
  c4707
  c4708
  c471
  c4716
  c4717
  c4718
  c4719
  c4720
  c4721
  c4722
  c4723
  c4724
  c4725
  c4726
  c4727
  c4731
  c4734
  c4735
  c4739
  c474
  c4742
  c4743
  c4746
  c4755
  c4765
  c4774
  c4776
  c478
  c4785
  c4788
  c4789
  c479
  c4794
  c480
  c4803
  c4805
  c4806
  c4807
  c4808
  c4809
  c4812
  c4813
  c4814
  c4815
  c4816
  c4817
  c4818
  c4827
  c483
  c4831
  c4836
  c484
  c4842
  c4846
  c4852
  c4855
  c4857
  c4867
  c487
  c4874
  c4878
  c4879
  c4880
  c4881
  c4882
  c4885
  c4886
  c4887
  c4888
  c4889
  c4890
  c4891
  c490
  c4900
  c4909
  c4919
  c492
  c4928
  c4930
  c4940
  c4949
  c4951
  c4952
  c4953
  c4954
  c4955
  c4958
  c4959
  c4960
  c4961
  c4962
  c4963
  c4964
  c4972
  c4973
  c4980
  c4983
  c4984
  c4988
  c4991
  c4992
  c4996
  c4999
  c5000
  c5007
  c5009
  c501
  c5010
  c5017
  c5019
  c502
  c5020
  c5028
  c5029
  c503
  c5030
  c5031
  c5032
  c5033
  c5034
  c5035
  c5036
  c5037
  c5038
  c5039
  c5043
  c5047
  c5051
  c5055
  c5057
  c5067
  c5077
  c5086
  c509
  c5097
  c51
  c5101
  c5106
  c511
  c5117
  c5118
  c5119
  c5120
  c5121
  c5124
  c5125
  c5126
  c5128
  c5129
  c5138
  c5148
  c5158
  c5167
  c517
  c5179
  c518
  c519
  c5190
  c5191
  c5192
  c5193
  c5194
  c5197
  c5198
  c5199
  c5201
  c5202
  c521
  c5211
  c522
  c5221
  c523
  c5231
  c5240
  c5252
  c5263
  c5264
  c5265
  c5266
  c5267
  c5270
  c5271
  c5272
  c5274
  c5275
  c5284
  c5285
  c5292
  c5296
  c5308
  c531
  c5315
  c5316
  c5317
  c5319
  c5321
  c5322
  c5329
  c5331
  c5332
  c5340
  c5341
  c5343
  c5346
  c5347
  c5348
  c5349
  c535
  c5350
  c5351
  c5370
  c5380
  c5390
  c5400
  c541
  c5418
  c5427
  c5436
  c544
  c5451
  c5461
  c547
  c5471
  c5481
  c5491
  c55
  c5500
  c5509
  c551
  c552
  c5524
  c553
  c5534
  c5544
  c5554
  c5564
  c557
  c5573
  c5582
  c5596
  c560
  c5604
  c5608
  c5612
  c5616
  c5620
  c5624
  c5629
  c563
  c5631
  c5633
  c5634
  c565
  c5653
  c5654
  c5655
  c5656
  c5657
  c5658
  c5659
  c5660
  c5661
  c5662
  c5663
  c5665
  c5669
  c5673
  c5676
  c5680
  c5684
  c5689
  c5693
  c5697
  c5701
  c5705
  c5709
  c5712
  c5713
  c5716
  c5717
  c5720
  c5721
  c5724
  c5725
  c5728
  c5729
  c5732
  c5733
  c5736
  c5737
  c5738
  c574
  c5740
  c5741
  c5742
  c5744
  c5745
  c5746
  c5748
  c5749
  c575
  c5750
  c5752
  c5753
  c5754
  c5756
  c5757
  c5758
  c576
  c5760
  c5761
  c5762
  c5764
  c5765
  c5766
  c5768
  c5769
  c5770
  c5772
  c5773
  c5774
  c5776
  c5777
  c5778
  c5780
  c5781
  c5782
  c5784
  c5785
  c5786
  c5788
  c5789
  c5790
  c5792
  c5793
  c5794
  c5796
  c5797
  c5798
  c5800
  c5801
  c5802
  c5804
  c5805
  c5806
  c5808
  c5809
  c5810
  c5812
  c5813
  c5814
  c5816
  c5817
  c5818
  c582
  c5820
  c5821
  c5822
  c5824
  c5825
  c5826
  c5828
  c5829
  c5830
  c5832
  c5833
  c5834
  c5836
  c5837
  c5838
  c584
  c5840
  c5841
  c5842
  c5844
  c5845
  c5846
  c5848
  c5849
  c5850
  c5852
  c5853
  c5854
  c5856
  c5857
  c5858
  c5860
  c5861
  c5862
  c5864
  c5865
  c5866
  c5868
  c5869
  c5870
  c5872
  c5873
  c5874
  c5876
  c5877
  c5878
  c5881
  c5882
  c5883
  c5884
  c5885
  c5886
  c5887
  c5889
  c5890
  c5891
  c5892
  c5893
  c5894
  c5895
  c5896
  c5898
  c5899
  c59
  c590
  c5901
  c5902
  c591
  c592
  c593
  c594
  c595
  c6
  c604
  c605
  c612
  c616
  c620
  c624
  c628
  c63
  c632
  c65
  c66
  c662
  c663
  c664
  c665
  c666
  c667
  c671
  c675
  c679
  c683
  c687
  c689
  c69
  c690
  c692
  c693
  c700
  c702
  c703
  c705
  c709
  c710
  c711
  c715
  c718
  c721
  c723
  c724
  c729
  c733
  c736
  c740
  c741
  c742
  c748
  c75
  c750
  c753
  c756
  c757
  c758
  c759
  c760
  c761
  c762
  c770
  c771
  c773
  c774
  c78
  c781
  c783
  c784
  c786
  c789
  c790
  c791
  c792
  c796
  c799
  c8
  c802
  c804
  c805
  c809
  c81
  c810
  c813
  c814
  c815
  c821
  c823
  c826
  c829
  c830
  c831
  c832
  c833
  c834
  c835
  c843
  c844
  c845
  c846
  c847
  c854
  c856
  c857
  c859
  c863
  c864
  c865
  c869
  c87
  c872
  c874
  c875
  c877
  c878
  c882
  c883
  c886
  c887
  c888
  c894
  c896
  c899
  c902
  c903
  c904
  c905
  c906
  c907
  c908
  c91
  c916
  c917
  c924
  c928
  c932
  c936
  c94
  c940
  c944
  c945
  c946
  c947
  c948
  c951
  c953
  c954
  c96
  c961
  c963
  c964
  c972
  c973
  c974
  c975
  c976
  c977
  c978
  c979
  c980
  c981
  c982
  c983
  c987
  c99
  c991
  c995
  c999 )
